
language ESSENCE' 1.0

letting fixed be 
[
    [1,7,4,8,3,2,5,9,6],
    [5,9,3,4,6,1,2,7,8],
    [6,8,2,9,5,7,0,0,1],
    [0,6,7,5,0,0,9,0,0],
    [0,1,9,7,0,3,6,0,5],
    [4,3,5,0,9,6,8,0,7],
    [3,0,1,6,0,0,7,5,9],
    [9,0,8,0,7,5,0,6,0],
    [7,5,6,3,0,9,0,8,2]
]